
******************************************************************************
This program contains Ipopt, a library for large-scale nonlinear optimization.
 Ipopt is released as open source code under the Eclipse Public License (EPL).
         For more information visit http://projects.coin-or.org/Ipopt
******************************************************************************

This is Ipopt version 3.12.6, running with linear solver ma57.

Number of nonzeros in equality constraint Jacobian...:        0
Number of nonzeros in inequality constraint Jacobian.:        0
Number of nonzeros in Lagrangian Hessian.............:        6

Total number of variables............................:        3
                     variables with only lower bounds:        1
                variables with lower and upper bounds:        0
                     variables with only upper bounds:        0
Total number of equality constraints.................:        0
Total number of inequality constraints...............:        0
        inequality constraints with only lower bounds:        0
   inequality constraints with lower and upper bounds:        0
        inequality constraints with only upper bounds:        0

iter    objective    inf_pr   inf_du lg(mu)  ||d||  lg(rg) alpha_du alpha_pr  ls
   0  9.4656790e+02 0.00e+00 1.00e+02  -1.0 0.00e+00    -  0.00e+00 0.00e+00   0
   1  9.4521162e+02 0.00e+00 1.00e+02  -1.0 1.00e-02   4.0 1.00e+00 1.00e+00f  1
   2  9.4106613e+02 0.00e+00 1.01e+02  -1.0 3.02e-02   3.5 1.00e+00 1.00e+00f  1
   3  9.2558108e+02 0.00e+00 1.10e+02  -1.0 9.92e-02   3.0 1.00e+00 1.00e+00f  1
   4  4.9714827e+00 0.00e+00 9.67e+01  -1.0 2.11e+00   2.6 8.17e-01 5.00e-01f  2
   5  4.7816859e-01 0.00e+00 1.03e+01  -1.0 3.11e-02    -  1.00e+00 1.00e+00f  1
   6  4.3038757e-01 0.00e+00 7.86e-01  -1.0 6.09e-03   2.1 1.00e+00 1.00e+00f  1
   7  4.1144055e-01 0.00e+00 7.21e-01  -1.7 1.47e-02   1.6 1.00e+00 1.00e+00f  1
   8  3.8986530e-01 0.00e+00 1.49e+01  -1.7 1.11e+00    -  1.00e+00 1.25e-01f  4
   9  2.4686699e-01 0.00e+00 1.99e+00  -1.7 6.05e-02    -  1.00e+00 1.00e+00f  1
iter    objective    inf_pr   inf_du lg(mu)  ||d||  lg(rg) alpha_du alpha_pr  ls
  10  1.8465834e-01 0.00e+00 9.76e+00  -1.7 2.09e-01    -  1.00e+00 5.00e-01f  2
  11  1.0990153e-01 0.00e+00 2.91e+00  -1.7 7.30e-02    -  1.00e+00 1.00e+00f  1
  12  8.5487587e-02 0.00e+00 1.26e+01  -1.7 1.43e-01    -  1.00e+00 1.00e+00f  1
  13  2.9807783e-02 0.00e+00 4.76e-01  -1.7 4.02e-02    -  1.00e+00 1.00e+00f  1
  14  1.5310473e-02 0.00e+00 3.71e+00  -1.7 1.56e-01    -  1.00e+00 5.00e-01f  2
  15  5.1029644e-03 0.00e+00 1.26e+00  -1.7 5.47e-02    -  1.00e+00 1.00e+00f  1
  16  1.3119889e-03 0.00e+00 1.39e+00  -1.7 5.90e-02    -  1.00e+00 1.00e+00f  1
  17  3.0006752e-04 0.00e+00 1.96e-01  -1.7 2.43e-02    -  1.00e+00 1.00e+00f  1
  18  1.5666398e-04 0.00e+00 1.30e-01  -2.5 1.93e-02    -  1.00e+00 1.00e+00f  1
  19  1.5067325e-04 0.00e+00 1.16e-01  -2.5 1.29e-02    -  1.00e+00 1.00e+00f  1
iter    objective    inf_pr   inf_du lg(mu)  ||d||  lg(rg) alpha_du alpha_pr  ls
  20  1.4851368e-04 0.00e+00 1.45e-01  -2.5 1.45e-02    -  1.00e+00 1.00e+00f  1
  21  1.4249398e-04 0.00e+00 9.16e-02  -2.5 1.14e-02    -  1.00e+00 1.00e+00f  1
  22  1.4790297e-04 0.00e+00 2.25e-01  -2.5 1.79e-02    -  1.00e+00 1.00e+00f  1
  23  1.3422072e-04 0.00e+00 3.66e-02  -2.5 7.08e-03    -  1.00e+00 1.00e+00f  1
  24  1.3409632e-04 0.00e+00 1.13e-01  -2.5 4.38e-02    -  1.00e+00 2.50e-01f  3
  25  1.3219211e-04 0.00e+00 1.40e-01  -2.5 1.39e-02    -  1.00e+00 1.00e+00f  1
  26  1.2648084e-04 0.00e+00 8.88e-02  -2.5 1.10e-02    -  1.00e+00 1.00e+00f  1
  27  1.3184776e-04 0.00e+00 2.17e-01  -2.5 1.72e-02    -  1.00e+00 1.00e+00f  1
  28  1.1871629e-04 0.00e+00 3.57e-02  -2.5 6.85e-03    -  1.00e+00 1.00e+00f  1
  29  1.1867499e-04 0.00e+00 1.08e-01  -2.5 4.19e-02    -  1.00e+00 2.50e-01f  3
iter    objective    inf_pr   inf_du lg(mu)  ||d||  lg(rg) alpha_du alpha_pr  ls
  30  1.1718978e-04 0.00e+00 1.39e-01  -2.5 1.36e-02    -  1.00e+00 1.00e+00f  1
  31  1.1149347e-04 0.00e+00 8.28e-02  -2.5 1.04e-02    -  1.00e+00 1.00e+00f  1
  32  1.1878855e-04 0.00e+00 2.27e-01  -2.5 1.73e-02    -  1.00e+00 1.00e+00f  1
  33  1.0424958e-04 0.00e+00 2.96e-02  -2.5 6.11e-03    -  1.00e+00 1.00e+00f  1
  34  1.0551105e-04 0.00e+00 1.30e-01  -2.5 4.71e-02    -  1.00e+00 2.50e-01f  3
  35  1.0063041e-04 0.00e+00 8.77e-02  -2.5 1.05e-02    -  1.00e+00 1.00e+00f  1
  36  1.0422250e-04 0.00e+00 1.88e-01  -2.5 1.54e-02    -  1.00e+00 1.00e+00f  1
  37  9.3735239e-05 0.00e+00 4.03e-02  -2.5 7.04e-03    -  1.00e+00 1.00e+00f  1
  38  1.0416607e-04 0.00e+00 2.34e-01  -2.5 3.27e-02    -  1.00e+00 5.00e-01f  2
  39  8.8398366e-05 0.00e+00 2.49e-02  -2.5 5.45e-03    -  1.00e+00 1.00e+00f  1
iter    objective    inf_pr   inf_du lg(mu)  ||d||  lg(rg) alpha_du alpha_pr  ls
  40  8.7119899e-05 0.00e+00 4.51e-02  -3.8 1.27e-02    -  1.00e+00 5.00e-01f  2
  41  8.5316717e-05 0.00e+00 3.84e-02  -3.8 6.81e-03    -  1.00e+00 1.00e+00f  1
  42  8.3854788e-05 0.00e+00 5.25e-02  -3.8 7.97e-03    -  1.00e+00 1.00e+00f  1
  43  8.2013750e-05 0.00e+00 2.75e-02  -3.8 5.74e-03    -  1.00e+00 1.00e+00f  1
  44  8.1983732e-05 0.00e+00 9.71e-02  -3.8 1.08e-02    -  1.00e+00 1.00e+00f  1
  45  7.8738043e-05 0.00e+00 7.69e-03  -3.8 2.99e-03    -  1.00e+00 1.00e+00f  1
  46  7.8323896e-05 0.00e+00 7.68e-02  -3.8 3.68e-02    -  1.00e+00 2.50e-01f  3
  47  7.5914921e-05 0.00e+00 1.17e-02  -3.8 3.69e-03    -  1.00e+00 1.00e+00f  1
  48  7.4996630e-05 0.00e+00 3.86e-02  -3.8 2.37e-02    -  1.00e+00 2.50e-01f  3
  49  7.3567543e-05 0.00e+00 4.42e-02  -3.8 7.18e-03    -  1.00e+00 1.00e+00f  1
iter    objective    inf_pr   inf_du lg(mu)  ||d||  lg(rg) alpha_du alpha_pr  ls
  50  7.1991662e-05 0.00e+00 3.29e-02  -3.8 6.18e-03    -  1.00e+00 1.00e+00f  1
  51  7.0880245e-05 0.00e+00 5.78e-02  -3.8 8.17e-03    -  1.00e+00 1.00e+00f  1
  52  6.9058599e-05 0.00e+00 1.84e-02  -3.8 4.58e-03    -  1.00e+00 1.00e+00f  1
  53  6.8263240e-05 0.00e+00 5.28e-02  -3.8 1.41e-02    -  1.00e+00 5.00e-01f  2
  54  6.6571229e-05 0.00e+00 2.11e-02  -3.8 4.88e-03    -  1.00e+00 1.00e+00f  1
  55  6.5706521e-05 0.00e+00 4.25e-02  -3.8 1.20e-02    -  1.00e+00 5.00e-01f  2
  56  6.4241844e-05 0.00e+00 3.11e-02  -3.8 5.91e-03    -  1.00e+00 1.00e+00f  1
  57  6.3253587e-05 0.00e+00 5.66e-02  -3.8 7.97e-03    -  1.00e+00 1.00e+00f  1
  58  6.1531645e-05 0.00e+00 1.67e-02  -3.8 4.30e-03    -  1.00e+00 1.00e+00f  1
  59  6.0862507e-05 0.00e+00 5.43e-02  -3.8 1.43e-02    -  1.00e+00 5.00e-01f  2
iter    objective    inf_pr   inf_du lg(mu)  ||d||  lg(rg) alpha_du alpha_pr  ls
  60  5.9213830e-05 0.00e+00 1.73e-02  -3.8 4.35e-03    -  1.00e+00 1.00e+00f  1
  61  5.8507505e-05 0.00e+00 4.96e-02  -3.8 1.34e-02    -  1.00e+00 5.00e-01f  2
  62  5.6980001e-05 0.00e+00 1.98e-02  -3.8 4.64e-03    -  1.00e+00 1.00e+00f  1
  63  5.6208456e-05 0.00e+00 3.99e-02  -3.8 1.14e-02    -  1.00e+00 5.00e-01f  2
  64  5.4893460e-05 0.00e+00 2.93e-02  -3.8 5.63e-03    -  1.00e+00 1.00e+00f  1
  65  5.4004440e-05 0.00e+00 5.27e-02  -3.8 7.53e-03    -  1.00e+00 1.00e+00f  1
  66  5.2461896e-05 0.00e+00 1.60e-02  -3.8 4.14e-03    -  1.00e+00 1.00e+00f  1
  67  5.1849771e-05 0.00e+00 4.95e-02  -3.8 1.33e-02    -  1.00e+00 5.00e-01f  2
  68  5.0395987e-05 0.00e+00 1.73e-02  -3.8 4.35e-03    -  1.00e+00 1.00e+00f  1
  69  4.9728436e-05 0.00e+00 4.27e-02  -3.8 1.22e-02    -  1.00e+00 5.00e-01f  2
iter    objective    inf_pr   inf_du lg(mu)  ||d||  lg(rg) alpha_du alpha_pr  ls
  70  4.8427905e-05 0.00e+00 2.22e-02  -3.8 4.97e-03    -  1.00e+00 1.00e+00f  1
  71  4.8523134e-05 0.00e+00 7.96e-02  -3.8 9.43e-03    -  1.00e+00 1.00e+00f  1
  72  4.6149922e-05 0.00e+00 6.09e-03  -3.8 2.66e-03    -  1.00e+00 1.00e+00f  1
  73  4.5964308e-05 0.00e+00 6.38e-02  -3.8 3.29e-02    -  1.00e+00 2.50e-01f  3
  74  4.4195861e-05 0.00e+00 9.00e-03  -3.8 3.25e-03    -  1.00e+00 1.00e+00f  1
  75  4.3578814e-05 0.00e+00 3.33e-02  -3.8 2.22e-02    -  1.00e+00 2.50e-01f  3
  76  4.2540971e-05 0.00e+00 3.15e-02  -3.8 6.11e-03    -  1.00e+00 1.00e+00f  1
  77  4.1562306e-05 0.00e+00 3.41e-02  -3.8 6.39e-03    -  1.00e+00 1.00e+00f  1
  78  4.0521313e-05 0.00e+00 2.84e-02  -3.8 5.86e-03    -  1.00e+00 1.00e+00f  1
  79  3.9678002e-05 0.00e+00 3.99e-02  -3.8 6.98e-03    -  1.00e+00 1.00e+00f  1
iter    objective    inf_pr   inf_du lg(mu)  ||d||  lg(rg) alpha_du alpha_pr  ls
  80  3.8546289e-05 0.00e+00 1.98e-02  -3.8 4.95e-03    -  1.00e+00 1.00e+00f  1
  81  3.8843602e-05 0.00e+00 7.76e-02  -3.8 9.84e-03    -  1.00e+00 1.00e+00f  1
  82  3.6583493e-05 0.00e+00 4.97e-03  -3.8 2.54e-03    -  1.00e+00 1.00e+00f  1
  83  3.6854127e-05 0.00e+00 7.17e-02  -3.8 3.72e-02    -  1.00e+00 2.50e-01f  3
  84  3.4854302e-05 0.00e+00 5.53e-03  -3.8 2.70e-03    -  1.00e+00 1.00e+00f  1
  85  3.4710406e-05 0.00e+00 5.67e-02  -3.8 3.31e-02    -  1.00e+00 2.50e-01f  3
  86  3.3248888e-05 0.00e+00 8.38e-03  -3.8 3.35e-03    -  1.00e+00 1.00e+00f  1
  87  3.2748212e-05 0.00e+00 2.87e-02  -3.8 2.18e-02    -  1.00e+00 2.50e-01f  3
  88  3.1932728e-05 0.00e+00 3.11e-02  -3.8 6.47e-03    -  1.00e+00 1.00e+00f  1
  89  3.1060490e-05 0.00e+00 2.58e-02  -3.8 5.92e-03    -  1.00e+00 1.00e+00f  1
iter    objective    inf_pr   inf_du lg(mu)  ||d||  lg(rg) alpha_du alpha_pr  ls
  90  3.0367580e-05 0.00e+00 3.65e-02  -3.8 7.07e-03    -  1.00e+00 1.00e+00f  1
  91  2.9412573e-05 0.00e+00 1.78e-02  -3.8 4.98e-03    -  1.00e+00 1.00e+00f  1
  92  2.9762061e-05 0.00e+00 7.27e-02  -3.8 1.00e-02    -  1.00e+00 1.00e+00f  1
  93  2.7775292e-05 0.00e+00 4.34e-03  -3.8 2.51e-03    -  1.00e+00 1.00e+00f  1
  94  2.8188988e-05 0.00e+00 7.05e-02  -3.8 3.88e-02    -  1.00e+00 2.50e-01f  3
  95  2.6323997e-05 0.00e+00 4.45e-03  -3.8 2.57e-03    -  1.00e+00 1.00e+00f  1
  96  2.6563752e-05 0.00e+00 6.49e-02  -3.8 3.73e-02    -  1.00e+00 2.50e-01f  3
  97  2.4947842e-05 0.00e+00 5.11e-03  -3.8 2.77e-03    -  1.00e+00 1.00e+00f  1
  98  2.4807337e-05 0.00e+00 4.97e-02  -3.8 3.24e-02    -  1.00e+00 2.50e-01f  3
  99  2.3681880e-05 0.00e+00 8.54e-03  -3.8 3.56e-03    -  1.00e+00 1.00e+00f  1
iter    objective    inf_pr   inf_du lg(mu)  ||d||  lg(rg) alpha_du alpha_pr  ls
 100  2.3296314e-05 0.00e+00 2.33e-02  -3.8 1.98e-02    -  1.00e+00 2.50e-01f  3
 101  2.2787481e-05 0.00e+00 3.80e-02  -3.8 7.45e-03    -  1.00e+00 1.00e+00f  1
 102  2.1937861e-05 0.00e+00 1.41e-02  -3.8 4.58e-03    -  1.00e+00 1.00e+00f  1
 103  2.1570033e-05 0.00e+00 3.16e-02  -3.8 1.20e-02    -  1.00e+00 5.00e-01f  2
 104  2.0845553e-05 0.00e+00 1.98e-02  -3.8 5.44e-03    -  1.00e+00 1.00e+00f  1
 105  2.0621808e-05 0.00e+00 4.95e-02  -3.8 8.58e-03    -  1.00e+00 1.00e+00f  1
 106  1.9581778e-05 0.00e+00 7.85e-03  -3.8 3.48e-03    -  1.00e+00 1.00e+00f  1
 107  1.9243409e-05 0.00e+00 2.40e-02  -3.8 2.08e-02    -  1.00e+00 2.50e-01f  3
 108  1.8738189e-05 0.00e+00 3.26e-02  -3.8 7.03e-03    -  1.00e+00 1.00e+00f  1
 109  1.8049337e-05 0.00e+00 1.74e-02  -3.8 5.17e-03    -  1.00e+00 1.00e+00f  1
iter    objective    inf_pr   inf_du lg(mu)  ||d||  lg(rg) alpha_du alpha_pr  ls
 110  1.8141817e-05 0.00e+00 5.94e-02  -3.8 9.52e-03    -  1.00e+00 1.00e+00f  1
 111  1.6885572e-05 0.00e+00 5.05e-03  -3.8 2.85e-03    -  1.00e+00 1.00e+00f  1
 112  1.6742071e-05 0.00e+00 4.26e-02  -3.8 3.09e-02    -  1.00e+00 2.50e-01f  3
 113  1.5926706e-05 0.00e+00 9.61e-03  -3.8 3.90e-03    -  1.00e+00 1.00e+00f  1
 114  1.5910377e-05 0.00e+00 4.92e-02  -3.8 1.66e-02    -  1.00e+00 5.00e-01f  2
 115  1.4971587e-05 0.00e+00 6.95e-03  -3.8 3.35e-03    -  1.00e+00 1.00e+00f  1
 116  1.4696489e-05 0.00e+00 2.52e-02  -3.8 2.24e-02    -  1.00e+00 2.50e-01f  3
 117  1.4211804e-05 0.00e+00 2.58e-02  -3.8 6.40e-03    -  1.00e+00 1.00e+00f  1
 118  1.3721917e-05 0.00e+00 2.43e-02  -3.8 6.23e-03    -  1.00e+00 1.00e+00f  1
 119  1.3275644e-05 0.00e+00 2.69e-02  -3.8 6.57e-03    -  1.00e+00 1.00e+00f  1
iter    objective    inf_pr   inf_du lg(mu)  ||d||  lg(rg) alpha_du alpha_pr  ls
 120  1.2779559e-05 0.00e+00 2.15e-02  -3.8 5.90e-03    -  1.00e+00 1.00e+00f  1
 121  1.2435602e-05 0.00e+00 3.29e-02  -3.8 7.30e-03    -  1.00e+00 1.00e+00f  1
 122  1.1865159e-05 0.00e+00 1.39e-02  -3.8 4.79e-03    -  1.00e+00 1.00e+00f  1
 123  1.1618723e-05 0.00e+00 2.57e-02  -3.8 1.10e-02    -  1.00e+00 5.00e-01f  2
 124  1.1175031e-05 0.00e+00 2.22e-02  -3.8 6.05e-03    -  1.00e+00 1.00e+00f  1
 125  1.0823240e-05 0.00e+00 2.91e-02  -3.8 6.93e-03    -  1.00e+00 1.00e+00f  1
 126  1.0340007e-05 0.00e+00 1.67e-02  -3.8 5.28e-03    -  1.00e+00 1.00e+00f  1
 127  1.0353352e-05 0.00e+00 4.93e-02  -3.8 9.05e-03    -  1.00e+00 1.00e+00f  1
 128  9.5363437e-06 0.00e+00 5.58e-03  -3.8 3.11e-03    -  1.00e+00 1.00e+00f  1
 129  9.3674104e-06 0.00e+00 2.86e-02  -3.8 2.56e-02    -  1.00e+00 2.50e-01f  3
iter    objective    inf_pr   inf_du lg(mu)  ||d||  lg(rg) alpha_du alpha_pr  ls
 130  8.9214507e-06 0.00e+00 1.61e-02  -3.8 5.23e-03    -  1.00e+00 1.00e+00f  1
 131  8.9746157e-06 0.00e+00 4.94e-02  -3.8 9.14e-03    -  1.00e+00 1.00e+00f  1
 132  8.1888858e-06 0.00e+00 5.17e-03  -3.8 3.02e-03    -  1.00e+00 1.00e+00f  1
 133  8.0577512e-06 0.00e+00 3.01e-02  -3.8 2.67e-02    -  1.00e+00 2.50e-01f  3
 134  7.6212722e-06 0.00e+00 1.35e-02  -3.8 4.85e-03    -  1.00e+00 1.00e+00f  1
 135  7.4389378e-06 0.00e+00 2.28e-02  -3.8 1.05e-02    -  1.00e+00 5.00e-01f  2
 136  7.1249244e-06 0.00e+00 2.27e-02  -3.8 6.28e-03    -  1.00e+00 1.00e+00f  1
 137  6.8191312e-06 0.00e+00 2.25e-02  -3.8 6.27e-03    -  1.00e+00 1.00e+00f  1
 138  6.5225548e-06 0.00e+00 2.24e-02  -3.8 6.28e-03    -  1.00e+00 1.00e+00f  1
 139  6.2328912e-06 0.00e+00 2.21e-02  -3.8 6.25e-03    -  1.00e+00 1.00e+00f  1
iter    objective    inf_pr   inf_du lg(mu)  ||d||  lg(rg) alpha_du alpha_pr  ls
 140  5.9543056e-06 0.00e+00 2.22e-02  -3.8 6.28e-03    -  1.00e+00 1.00e+00f  1
 141  5.6783264e-06 0.00e+00 2.15e-02  -3.8 6.20e-03    -  1.00e+00 1.00e+00f  1
 142  5.4213114e-06 0.00e+00 2.24e-02  -3.8 6.34e-03    -  1.00e+00 1.00e+00f  1
 143  5.1513401e-06 0.00e+00 2.02e-02  -3.8 6.03e-03    -  1.00e+00 1.00e+00f  1
 144  4.9326858e-06 0.00e+00 2.43e-02  -3.8 6.63e-03    -  1.00e+00 1.00e+00f  1
 145  4.6441092e-06 0.00e+00 1.65e-02  -3.8 5.48e-03    -  1.00e+00 1.00e+00f  1
 146  4.5735262e-06 0.00e+00 3.49e-02  -3.8 7.96e-03    -  1.00e+00 1.00e+00f  1
 147  4.1600500e-06 0.00e+00 7.67e-03  -3.8 3.78e-03    -  1.00e+00 1.00e+00f  1
 148  4.2488249e-06 0.00e+00 4.06e-02  -3.8 1.64e-02    -  1.00e+00 5.00e-01f  2
 149  3.7568653e-06 0.00e+00 5.42e-03  -3.8 3.20e-03    -  1.00e+00 1.00e+00f  1
iter    objective    inf_pr   inf_du lg(mu)  ||d||  lg(rg) alpha_du alpha_pr  ls
 150  3.6680171e-06 0.00e+00 2.10e-02  -3.8 2.24e-02    -  1.00e+00 2.50e-01f  3
 151  3.4581884e-06 0.00e+00 1.94e-02  -3.8 6.01e-03    -  1.00e+00 1.00e+00f  1
 152  3.2845885e-06 0.00e+00 2.22e-02  -3.8 6.45e-03    -  1.00e+00 1.00e+00f  1
 153  3.0645527e-06 0.00e+00 1.65e-02  -3.8 5.58e-03    -  1.00e+00 1.00e+00f  1
 154  2.9810959e-06 0.00e+00 2.90e-02  -3.8 7.40e-03    -  1.00e+00 1.00e+00f  1
 155  2.6880992e-06 0.00e+00 9.24e-03  -3.8 4.21e-03    -  1.00e+00 1.00e+00f  1
 156  2.6505359e-06 0.00e+00 2.61e-02  -3.8 1.27e-02    -  1.00e+00 5.00e-01f  2
 157  2.4017243e-06 0.00e+00 1.10e-02  -3.8 4.60e-03    -  1.00e+00 1.00e+00f  1
 158  2.3315608e-06 0.00e+00 2.02e-02  -3.8 1.06e-02    -  1.00e+00 5.00e-01f  2
 159  2.1650903e-06 0.00e+00 1.75e-02  -3.8 5.80e-03    -  1.00e+00 1.00e+00f  1
iter    objective    inf_pr   inf_du lg(mu)  ||d||  lg(rg) alpha_du alpha_pr  ls
 160  2.0552402e-06 0.00e+00 2.27e-02  -3.8 6.62e-03    -  1.00e+00 1.00e+00f  1
 161  1.8632813e-06 0.00e+00 1.32e-02  -3.8 5.07e-03    -  1.00e+00 1.00e+00f  1
 162  1.9524338e-06 0.00e+00 3.75e-02  -3.8 8.54e-03    -  1.00e+00 1.00e+00f  1
 163  1.5809897e-06 0.00e+00 4.54e-03  -3.8 3.02e-03    -  1.00e+00 1.00e+00f  1
 164  1.5519755e-06 0.00e+00 2.04e-02  -3.8 2.30e-02    -  1.00e+00 2.50e-01f  3
 165  1.4035026e-06 0.00e+00 1.47e-02  -3.8 5.39e-03    -  1.00e+00 1.00e+00f  1
 166  1.3832327e-06 0.00e+00 2.73e-02  -3.8 7.34e-03    -  1.00e+00 1.00e+00f  1
 167  1.1643905e-06 0.00e+00 7.79e-03  -3.8 3.96e-03    -  1.00e+00 1.00e+00f  1
 168  1.1863591e-06 0.00e+00 2.60e-02  -3.8 1.33e-02    -  1.00e+00 5.00e-01f  2
 169  9.8855711e-07 0.00e+00 8.12e-03  -3.8 4.05e-03    -  1.00e+00 1.00e+00f  1
iter    objective    inf_pr   inf_du lg(mu)  ||d||  lg(rg) alpha_du alpha_pr  ls
 170  9.9705446e-07 0.00e+00 2.35e-02  -3.8 1.25e-02    -  1.00e+00 5.00e-01f  2
 171  8.3351322e-07 0.00e+00 9.47e-03  -3.8 4.39e-03    -  1.00e+00 1.00e+00f  1
 172  8.1333823e-07 0.00e+00 1.84e-02  -3.8 1.05e-02    -  1.00e+00 5.00e-01f  2
 173  7.1370799e-07 0.00e+00 1.45e-02  -3.8 5.45e-03    -  1.00e+00 1.00e+00f  1
 174  6.9161629e-07 0.00e+00 2.25e-02  -3.8 6.77e-03    -  1.00e+00 1.00e+00f  1
 175  5.5130205e-07 0.00e+00 9.20e-03  -3.8 4.36e-03    -  1.00e+00 1.00e+00f  1
 176  5.4098352e-07 0.00e+00 1.75e-02  -3.8 1.03e-02    -  1.00e+00 5.00e-01f  2
 177  4.6276403e-07 0.00e+00 1.43e-02  -3.8 5.44e-03    -  1.00e+00 1.00e+00f  1
 178  4.4590608e-07 0.00e+00 2.07e-02  -3.8 6.54e-03    -  1.00e+00 1.00e+00f  1
 179  3.3606823e-07 0.00e+00 9.67e-03  -3.8 4.50e-03    -  1.00e+00 1.00e+00f  1
iter    objective    inf_pr   inf_du lg(mu)  ||d||  lg(rg) alpha_du alpha_pr  ls
 180  6.0086821e-07 0.00e+00 4.17e-02  -3.8 9.31e-03    -  1.00e+00 1.00e+00f  1
 181  2.2625798e-07 0.00e+00 2.20e-03  -3.8 2.19e-03    -  1.00e+00 1.00e+00f  1
 182  2.2098986e-07 0.00e+00 1.14e-02  -3.8 3.57e-02    -  1.00e+00 1.25e-01f  4
 183  3.0212063e-07 0.00e+00 2.76e-02  -3.8 7.62e-03    -  1.00e+00 1.00e+00f  1
 184  1.3343301e-07 0.00e+00 4.63e-03  -3.8 3.15e-03    -  1.00e+00 1.00e+00f  1
 185  1.3836756e-07 0.00e+00 1.25e-02  -3.8 1.75e-02    -  1.00e+00 2.50e-01f  3
 186  1.6558444e-07 0.00e+00 2.10e-02  -3.8 6.68e-03    -  1.00e+00 1.00e+00f  1
 187  7.1713617e-08 0.00e+00 7.27e-03  -3.8 3.96e-03    -  1.00e+00 1.00e+00f  1
 188  1.0518687e-07 0.00e+00 1.76e-02  -3.8 1.09e-02    -  1.00e+00 5.00e-01f  2
 189  4.8683759e-08 0.00e+00 9.65e-03  -3.8 4.57e-03    -  1.00e+00 1.00e+00f  1
iter    objective    inf_pr   inf_du lg(mu)  ||d||  lg(rg) alpha_du alpha_pr  ls
 190  1.9742237e-07 0.00e+00 3.04e-02  -3.8 8.09e-03    -  1.00e+00 1.00e+00f  1
 191  1.1203229e-08 0.00e+00 3.00e-03  -3.8 2.58e-03    -  1.00e+00 1.00e+00f  1
 192  6.8304508e-08 0.00e+00 1.81e-02  -3.8 2.34e-02    -  1.00e+00 2.50e-01f  3
 193  1.3880681e-08 0.00e+00 7.93e-03  -3.8 4.17e-03    -  1.00e+00 1.00e+00f  1
 194  3.7695056e-08 0.00e+00 1.36e-02  -3.8 9.16e-03    -  1.00e+00 5.00e-01f  2
 195  3.7921301e-08 0.00e+00 1.31e-02  -3.8 5.37e-03    -  1.00e+00 1.00e+00f  1
 196  4.5746242e-08 0.00e+00 1.35e-02  -3.8 5.45e-03    -  1.00e+00 1.00e+00f  1
 197  4.7899935e-08 0.00e+00 1.22e-02  -3.8 5.20e-03    -  1.00e+00 1.00e+00f  1
 198  7.0402662e-08 0.00e+00 1.42e-02  -3.8 5.62e-03    -  1.00e+00 1.00e+00f  1
 199  6.3962829e-08 0.00e+00 1.01e-02  -3.8 4.75e-03    -  1.00e+00 1.00e+00f  1
iter    objective    inf_pr   inf_du lg(mu)  ||d||  lg(rg) alpha_du alpha_pr  ls
 200  1.3449980e-07 0.00e+00 1.89e-02  -3.8 6.50e-03    -  1.00e+00 1.00e+00f  1
 201  8.3979929e-08 0.00e+00 5.26e-03  -3.8 3.45e-03    -  1.00e+00 1.00e+00f  1
 202  1.6466533e-07 0.00e+00 1.79e-02  -3.8 1.17e-02    -  1.00e+00 5.00e-01f  2
 203  1.2570590e-07 0.00e+00 5.44e-03  -3.8 3.51e-03    -  1.00e+00 1.00e+00f  1
 204  1.9649546e-07 0.00e+00 1.60e-02  -3.8 1.09e-02    -  1.00e+00 5.00e-01f  2
 205  1.7681414e-07 0.00e+00 6.29e-03  -3.8 3.79e-03    -  1.00e+00 1.00e+00f  1
 206  2.2563857e-07 0.00e+00 1.24e-02  -3.8 9.15e-03    -  1.00e+00 5.00e-01f  2
 207  2.4399718e-07 0.00e+00 9.58e-03  -3.8 4.68e-03    -  1.00e+00 1.00e+00f  1
 208  3.1002485e-07 0.00e+00 1.51e-02  -3.8 5.87e-03    -  1.00e+00 1.00e+00f  1
 209  3.0075577e-07 0.00e+00 5.86e-03  -3.8 3.68e-03    -  1.00e+00 1.00e+00f  1
iter    objective    inf_pr   inf_du lg(mu)  ||d||  lg(rg) alpha_du alpha_pr  ls
 210  3.5478472e-07 0.00e+00 1.17e-02  -3.8 8.99e-03    -  1.00e+00 5.00e-01f  2
 211  3.8027046e-07 0.00e+00 8.83e-03  -3.8 4.51e-03    -  1.00e+00 1.00e+00f  1
 212  4.5566512e-07 0.00e+00 1.47e-02  -3.8 5.82e-03    -  1.00e+00 1.00e+00f  1
 213  4.5177449e-07 0.00e+00 5.11e-03  -3.8 3.45e-03    -  1.00e+00 1.00e+00f  1
 214  5.1702148e-07 0.00e+00 1.20e-02  -3.8 9.34e-03    -  1.00e+00 5.00e-01f  2
 215  5.3894800e-07 0.00e+00 6.97e-03  -3.8 4.04e-03    -  1.00e+00 1.00e+00f  1
 216  6.6330328e-07 0.00e+00 1.89e-02  -3.8 6.64e-03    -  1.00e+00 1.00e+00f  1
 217  6.2474041e-07 0.00e+00 2.49e-03  -3.8 2.43e-03    -  1.00e+00 1.00e+00f  1
 218  6.8295715e-07 0.00e+00 9.02e-03  -3.8 1.64e-02    -  1.00e+00 2.50e-01f  3
 219  7.3966719e-07 0.00e+00 9.81e-03  -3.8 4.81e-03    -  1.00e+00 1.00e+00f  1
iter    objective    inf_pr   inf_du lg(mu)  ||d||  lg(rg) alpha_du alpha_pr  ls
 220  7.8339541e-07 0.00e+00 7.84e-03  -3.8 4.31e-03    -  1.00e+00 1.00e+00f  1
 221  8.5831325e-07 0.00e+00 1.14e-02  -3.8 5.20e-03    -  1.00e+00 1.00e+00f  1
 222  8.8274770e-07 0.00e+00 5.12e-03  -3.8 3.49e-03    -  1.00e+00 1.00e+00f  1
 223  9.3688062e-07 0.00e+00 8.26e-03  -3.8 7.36e-03    -  1.00e+00 5.00e-01f  2
 224  9.9730956e-07 0.00e+00 8.68e-03  -3.8 4.55e-03    -  1.00e+00 1.00e+00f  1
 225  1.0495267e-06 0.00e+00 7.36e-03  -3.8 4.20e-03    -  1.00e+00 1.00e+00f  1
 226  1.1212310e-06 0.00e+00 9.49e-03  -3.8 4.77e-03    -  1.00e+00 1.00e+00f  1
 227  1.1608939e-06 0.00e+00 5.38e-03  -3.8 3.60e-03    -  1.00e+00 1.00e+00f  1
 228  1.2824983e-06 0.00e+00 1.51e-02  -3.8 6.02e-03    -  1.00e+00 1.00e+00f  1
 229  1.2743598e-06 0.00e+00 1.85e-03  -3.8 2.13e-03    -  1.00e+00 1.00e+00f  1
iter    objective    inf_pr   inf_du lg(mu)  ||d||  lg(rg) alpha_du alpha_pr  ls
 230  1.3378129e-06 0.00e+00 7.05e-03  -3.8 1.48e-02    -  1.00e+00 2.50e-01f  3
 231  1.4025011e-06 0.00e+00 7.29e-03  -3.8 4.21e-03    -  1.00e+00 1.00e+00f  1
 232  1.4611261e-06 0.00e+00 6.32e-03  -3.8 3.92e-03    -  1.00e+00 1.00e+00f  1
 233  1.5331434e-06 0.00e+00 7.69e-03  -3.8 4.33e-03    -  1.00e+00 1.00e+00f  1
 234  1.5823008e-06 0.00e+00 4.82e-03  -3.8 3.44e-03    -  1.00e+00 1.00e+00f  1
 235  1.6840275e-06 0.00e+00 1.09e-02  -3.8 5.17e-03    -  1.00e+00 1.00e+00f  1
 236  1.7013901e-06 0.00e+00 2.02e-03  -3.8 2.24e-03    -  1.00e+00 1.00e+00f  1
 237  1.8156754e-06 0.00e+00 1.22e-02  -3.8 1.05e-02    -  1.00e+00 5.00e-01f  2
 238  1.8217995e-06 0.00e+00 1.35e-03  -3.8 1.84e-03    -  1.00e+00 1.00e+00f  1
 239  1.7587244e-06 0.00e+00 9.80e-03  -5.7 3.68e-02    -  1.00e+00 1.25e-01f  4
iter    objective    inf_pr   inf_du lg(mu)  ||d||  lg(rg) alpha_du alpha_pr  ls
 240  1.6769990e-06 0.00e+00 1.42e-02  -5.7 5.84e-03    -  1.00e+00 1.00e+00f  1
 241  1.5842327e-06 0.00e+00 6.51e-03  -5.7 3.98e-03    -  1.00e+00 1.00e+00f  1
 242  1.5284636e-06 0.00e+00 1.03e-02  -5.7 8.30e-03    -  1.00e+00 5.00e-01f  2
 243  1.4495542e-06 0.00e+00 1.11e-02  -5.7 5.19e-03    -  1.00e+00 1.00e+00f  1
 244  1.3703499e-06 0.00e+00 9.06e-03  -5.7 4.69e-03    -  1.00e+00 1.00e+00f  1
 245  1.3010340e-06 0.00e+00 1.27e-02  -5.7 5.54e-03    -  1.00e+00 1.00e+00f  1
 246  1.2231352e-06 0.00e+00 6.17e-03  -5.7 3.85e-03    -  1.00e+00 1.00e+00f  1
 247  1.2077160e-06 0.00e+00 2.36e-02  -5.7 7.55e-03    -  1.00e+00 1.00e+00f  1
 248  1.0830024e-06 0.00e+00 1.57e-03  -5.7 1.92e-03    -  1.00e+00 1.00e+00f  1
 249  1.0503718e-06 0.00e+00 1.69e-02  -5.7 2.46e-02    -  1.00e+00 2.50e-01f  3
iter    objective    inf_pr   inf_du lg(mu)  ||d||  lg(rg) alpha_du alpha_pr  ls
 250  9.6740631e-07 0.00e+00 2.70e-03  -5.7 2.52e-03    -  1.00e+00 1.00e+00f  1
 251  9.2951694e-07 0.00e+00 7.42e-03  -5.7 1.44e-02    -  1.00e+00 2.50e-01f  3
 252  8.7872431e-07 0.00e+00 1.23e-02  -5.7 5.40e-03    -  1.00e+00 1.00e+00f  1
 253  8.1625813e-07 0.00e+00 4.28e-03  -5.7 3.17e-03    -  1.00e+00 1.00e+00f  1
 254  7.7950457e-07 0.00e+00 9.81e-03  -5.7 8.53e-03    -  1.00e+00 5.00e-01f  2
 255  7.2533789e-07 0.00e+00 5.85e-03  -5.7 3.71e-03    -  1.00e+00 1.00e+00f  1
 256  6.9300631e-07 0.00e+00 1.49e-02  -5.7 5.92e-03    -  1.00e+00 1.00e+00f  1
 257  6.2926593e-07 0.00e+00 2.21e-03  -5.7 2.26e-03    -  1.00e+00 1.00e+00f  1
 258  6.0030344e-07 0.00e+00 6.52e-03  -5.7 1.35e-02    -  1.00e+00 2.50e-01f  3
 259  5.6104465e-07 0.00e+00 9.82e-03  -5.7 4.79e-03    -  1.00e+00 1.00e+00f  1
iter    objective    inf_pr   inf_du lg(mu)  ||d||  lg(rg) alpha_du alpha_pr  ls
 260  5.1597365e-07 0.00e+00 4.07e-03  -5.7 3.07e-03    -  1.00e+00 1.00e+00f  1
 261  4.8906360e-07 0.00e+00 7.17e-03  -5.7 6.92e-03    -  1.00e+00 5.00e-01f  2
 262  4.5123152e-07 0.00e+00 6.53e-03  -5.7 3.89e-03    -  1.00e+00 1.00e+00f  1
 263  4.1638451e-07 0.00e+00 7.20e-03  -5.7 4.08e-03    -  1.00e+00 1.00e+00f  1
 264  3.8176077e-07 0.00e+00 5.44e-03  -5.7 3.54e-03    -  1.00e+00 1.00e+00f  1
 265  3.5313577e-07 0.00e+00 8.53e-03  -5.7 4.44e-03    -  1.00e+00 1.00e+00f  1
 266  3.1995889e-07 0.00e+00 3.24e-03  -5.7 2.72e-03    -  1.00e+00 1.00e+00f  1
 267  3.0024893e-07 0.00e+00 6.33e-03  -5.7 6.58e-03    -  1.00e+00 5.00e-01f  2
 268  2.7261466e-07 0.00e+00 4.89e-03  -5.7 3.35e-03    -  1.00e+00 1.00e+00f  1
 269  2.4940783e-07 0.00e+00 7.26e-03  -5.7 4.08e-03    -  1.00e+00 1.00e+00f  1
iter    objective    inf_pr   inf_du lg(mu)  ||d||  lg(rg) alpha_du alpha_pr  ls
 270  2.2363072e-07 0.00e+00 3.04e-03  -5.7 2.63e-03    -  1.00e+00 1.00e+00f  1
 271  2.0834196e-07 0.00e+00 5.12e-03  -5.7 5.73e-03    -  1.00e+00 5.00e-01f  2
 272  1.8737612e-07 0.00e+00 4.97e-03  -5.7 3.36e-03    -  1.00e+00 1.00e+00f  1
 273  1.6781676e-07 0.00e+00 4.68e-03  -5.7 3.26e-03    -  1.00e+00 1.00e+00f  1
 274  1.4980831e-07 0.00e+00 4.65e-03  -5.7 3.24e-03    -  1.00e+00 1.00e+00f  1
 275  1.3295506e-07 0.00e+00 4.15e-03  -5.7 3.06e-03    -  1.00e+00 1.00e+00f  1
 276  1.1781629e-07 0.00e+00 4.52e-03  -5.7 3.19e-03    -  1.00e+00 1.00e+00f  1
 277  1.0331428e-07 0.00e+00 3.35e-03  -5.7 2.74e-03    -  1.00e+00 1.00e+00f  1
 278  9.1448771e-08 0.00e+00 5.14e-03  -5.7 3.40e-03    -  1.00e+00 1.00e+00f  1
 279  7.8623170e-08 0.00e+00 1.94e-03  -5.7 2.08e-03    -  1.00e+00 1.00e+00f  1
iter    objective    inf_pr   inf_du lg(mu)  ||d||  lg(rg) alpha_du alpha_pr  ls
 280  7.1055203e-08 0.00e+00 3.52e-03  -5.7 4.78e-03    -  1.00e+00 5.00e-01f  2
 281  6.1038772e-08 0.00e+00 3.05e-03  -5.7 2.61e-03    -  1.00e+00 1.00e+00f  1
 282  5.2269206e-08 0.00e+00 3.37e-03  -5.7 2.74e-03    -  1.00e+00 1.00e+00f  1
 283  4.4091772e-08 0.00e+00 2.33e-03  -5.7 2.28e-03    -  1.00e+00 1.00e+00f  1
 284  3.7619144e-08 0.00e+00 3.83e-03  -5.7 2.92e-03    -  1.00e+00 1.00e+00f  1
 285  3.0810251e-08 0.00e+00 1.22e-03  -5.7 1.64e-03    -  1.00e+00 1.00e+00f  1
 286  2.6784317e-08 0.00e+00 2.55e-03  -5.7 4.15e-03    -  1.00e+00 5.00e-01f  2
 287  2.1769616e-08 0.00e+00 1.79e-03  -5.7 1.99e-03    -  1.00e+00 1.00e+00f  1
 288  1.7736943e-08 0.00e+00 2.67e-03  -5.7 2.43e-03    -  1.00e+00 1.00e+00f  1
 289  1.3948096e-08 0.00e+00 9.69e-04  -5.7 1.46e-03    -  1.00e+00 1.00e+00f  1
iter    objective    inf_pr   inf_du lg(mu)  ||d||  lg(rg) alpha_du alpha_pr  ls
 290  1.2614280e-08 0.00e+00 4.29e-03  -5.7 3.08e-03    -  1.00e+00 1.00e+00f  1
 291  8.1710580e-09 0.00e+00 1.92e-04  -5.7 6.45e-04    -  1.00e+00 1.00e+00f  1
 292  6.6248360e-09 0.00e+00 1.06e-03  -5.7 5.70e-03    -  1.00e+00 2.50e-01f  3
 293  4.9127266e-09 0.00e+00 1.36e-03  -5.7 1.73e-03    -  1.00e+00 1.00e+00f  1
 294  3.5911577e-09 0.00e+00 5.59e-04  -5.7 1.11e-03    -  1.00e+00 1.00e+00f  1
 295  2.5609579e-09 0.00e+00 1.41e-03  -5.7 1.76e-03    -  1.00e+00 1.00e+00f  1
 296  1.8051587e-09 0.00e+00 1.51e-04  -5.7 5.74e-04    -  1.00e+00 1.00e+00f  1
 297  1.3249757e-09 0.00e+00 4.47e-04  -5.7 1.81e-03    -  1.00e+00 5.00e-01f  2
 298  9.4576729e-10 0.00e+00 2.40e-04  -5.7 7.26e-04    -  1.00e+00 1.00e+00f  1
 299  6.9057721e-10 0.00e+00 1.66e-04  -5.7 6.02e-04    -  1.00e+00 1.00e+00f  1
iter    objective    inf_pr   inf_du lg(mu)  ||d||  lg(rg) alpha_du alpha_pr  ls
 300  5.7148447e-10 0.00e+00 4.46e-05  -5.7 3.12e-04    -  1.00e+00 1.00e+00f  1
 301  5.1963716e-10 0.00e+00 1.04e-05  -5.7 1.51e-04    -  1.00e+00 1.00e+00f  1
 302  3.5175733e-10 0.00e+00 1.04e-03  -8.6 3.01e-03    -  1.00e+00 5.00e-01f  2
 303  8.4959985e-11 0.00e+00 5.87e-05  -8.6 3.57e-04    -  1.00e+00 1.00e+00f  1
 304  5.1499014e-11 0.00e+00 5.00e-04  -8.6 1.05e-03    -  1.00e+00 1.00e+00f  1
 305  9.5036726e-13 0.00e+00 2.71e-06  -8.6 7.64e-05    -  1.00e+00 1.00e+00f  1
 306  1.2519711e-14 0.00e+00 7.48e-06  -8.6 1.28e-04    -  1.00e+00 1.00e+00f  1
 307  9.5777313e-16 0.00e+00 5.85e-10  -8.6 1.12e-06    -  1.00e+00 1.00e+00f  1

Number of Iterations....: 307

                                   (scaled)                 (unscaled)
Objective...............:   7.0655394955094447e-16    9.5777313192752641e-16
Dual infeasibility......:   5.8479069777684335e-10    7.9271627946851681e-10
Constraint violation....:   0.0000000000000000e+00    0.0000000000000000e+00
Complementarity.........:   2.5059035596800064e-09    3.3968914931244097e-09
Overall NLP error.......:   2.5059035596800064e-09    3.3968914931244097e-09


Number of objective function evaluations             = 708
Number of objective gradient evaluations             = 308
Number of equality constraint evaluations            = 0
Number of inequality constraint evaluations          = 0
Number of equality constraint Jacobian evaluations   = 0
Number of inequality constraint Jacobian evaluations = 0
Number of Lagrangian Hessian evaluations             = 307
Total CPU secs in IPOPT (w/o function evaluations)   =      0.063
Total CPU secs in NLP function evaluations           =      0.007

EXIT: Optimal Solution Found.

 ** SUBROUTINE CUTEST_csetup: Warning. The problem has no general constraints. 
 ** Other tools may be preferable ** 

************************ CUTEst statistics ************************


 Package used            :  IPOPT
 Problem                 :  PFIT1LS   
 # variables             =               3
 # constraints           =               0
 # objective functions   =        0.1017000E+04
 # objective gradients   =        0.3090000E+03
 # objective Hessians    =        0.3080000E+03
 # Hessian-vector prdct  =        0.0000000E+00
 # constraints functions =        0.0000000E+00
 # constraints gradients =        0.0000000E+00
 # constraints Hessians  =        0.0000000E+00
 Exit code               =               0
 Final f                 =   0.9577731E-15
 Set up time             =            0.00 seconds
 Solve time              =            0.35 seconds


******************************************************************

System Time =       0.0879999995 s.
